NAME : I-n25-k9
CAPACITY : 418
NODE_COORD_SECTION
1   52   300
2   194   133
3   314   265
4   134   428
5   474   409
6   417   343
7   126   397
8   401   288
9   448   400
10   270   359
11   139   60
12   226   358
13   374   355
14   288   159
15   378   495
16   108   321
17   345   155
18   309   493
19   209   497
20   175   126
21   259   425
22   201   406
23   430   347
24   239   370
25   225   475
DEMAND_SECTION
1   0
2   13
3   46
4   68
5   22
6   6
7   99
8   84
9   10
10   12
11   96
12   29
13   83
14   80
15   72
16   22
17   60
18   94
19   20
20   25
21   87
22   48
23   69
24   88
25   7
DEPOT_SECTION
    1
    -1
EOF